nr_shelves = 30;
shelves = [5, 4, 3];

Product = P(1..4);

product_size = 
[|       Length: Width: Height: 
 | P(1):      2,     2,      1
 | P(2):      3,     3,      2
 | P(3):      2,     3,      1
 | P(4):      2,     4,      1
 |];

nr_products = [20, 20, 20, 15];
